c 1 CONFIG_HELP
c 2 CONFIG_SORT_BIG
c 3 CONFIG_DHCPD
c 4 CONFIG_SYSLOGD
c 5 CONFIG_TAIL
c 6 CONFIG_ID_Z
c 7 CONFIG_UNSHARE
c 8 CONFIG_EGREP
c 9 CONFIG_ID
c 10 CONFIG_RESTORECON
c 11 CONFIG_HELP_EXTRAS
c 12 CONFIG_KILL
c 13 CONFIG_TOYBOX_ICONV
c 14 CONFIG_CP_MORE
c 15 CONFIG_GZIP
c 16 CONFIG_MKE2FS_EXTENDED
c 17 CONFIG_TOYBOX_FIFREEZE
c 18 CONFIG_CP_PRESERVE
c 19 CONFIG_LS_COLOR
c 20 CONFIG_MKE2FS_GEN
c 21 CONFIG_TOYBOX_SHADOW
c 22 CONFIG_LSPCI
c 23 CONFIG_MKFIFO_Z
c 24 CONFIG_TOYBOX_FORK
c 25 CONFIG_GUNZIP
c 26 CONFIG_TOYBOX_UID_USR
c 27 CONFIG_TOYBOX_CONTAINER
c 28 CONFIG_NETCAT_LISTEN
c 29 CONFIG_MKE2FS_LABEL
c 30 CONFIG_SEQ
c 31 CONFIG_SORT_FLOAT
c 32 CONFIG_DECOMPRESS
c 33 CONFIG_SORT
c 34 CONFIG_SU
c 35 CONFIG_CD
c 36 CONFIG_TIMEOUT
c 37 CONFIG_LOGGER
c 38 CONFIG_SETPROP
c 39 CONFIG_GETPROP
c 40 CONFIG_UPTIME
c 41 CONFIG_MKDIR
c 42 CONFIG_INSTALL
c 43 CONFIG_TOYBOX
c 44 CONFIG_TOYBOX_UTMPX
c 45 CONFIG_SLEEP
c 46 CONFIG_TOYBOX_FALLOCATE
c 47 CONFIG_MDEV
c 48 CONFIG_KILLALL5
c 49 CONFIG_TOYBOX_HELP_DASHDASH
c 50 __Root__
c 51 CONFIG_LS
c 52 CONFIG_CHCON
c 53 CONFIG_TIME
c 54 CONFIG_W
c 55 CONFIG_KLOGD_SOURCE_RING_BUFFER
c 56 CONFIG_SULOGIN
c 57 CONFIG_FGREP
c 58 CONFIG_MDEV_CONF
c 59 CONFIG_LOAD_POLICY
c 60 CONFIG_MKDIR_Z
c 61 CONFIG_SLEEP_FLOAT
c 62 CONFIG_TOYBOX_UID_SYS
c 63 CONFIG_SETENFORCE
c 64 CONFIG_LOGIN
c 65 CONFIG_FSFREEZE
c 66 CONFIG_MKNOD_Z
c 67 CONFIG_GREP
c 68 CONFIG_XARGS_PEDANTIC
c 69 CONFIG_WHO
c 70 CONFIG_CP
c 71 CONFIG_TAIL_SEEK
c 72 CONFIG_LSPCI_TEXT
c 73 CONFIG_RUNCON
c 74 CONFIG_TOYBOX_LSM_NONE
c 75 CONFIG_XARGS
c 76 CONFIG_CAT
c 77 CONFIG_TOYBOX_SELINUX
c 78 CONFIG_KLOGD
c 79 CONFIG_MKE2FS
c 80 CONFIG_GZIP_D
c 81 CONFIG_ICONV
c 82 CONFIG_GETENFORCE
c 83 CONFIG_TOYBOX_FLOAT
c 84 CONFIG_MKNOD
c 85 CONFIG_TOYBOX_HELP
c 86 CONFIG_PASSWD
c 87 CONFIG_FALLOCATE
c 88 CONFIG_MV_MORE
c 89 CONFIG_ZCAT
c 90 CONFIG_EXIT
c 91 CONFIG_NETCAT
c 92 CONFIG_MV
c 93 CONFIG_MKFIFO
c 94 CONFIG_TOYBOX_ON_ANDROID
c 95 CONFIG_TOYBOX_SMACK
c 96 CONFIG_MKE2FS_JOURNAL
c 97 CONFIG_CAT_V
c 98 CONFIG_DEBUG_DHCP
c 99 CONFIG_COMPRESS
p cnf 99 196
50 0
50 -57 0
50 -67 0
50 -70 0
50 -14 0
50 -83 0
50 -53 0
50 -69 0
50 -44 0
50 -11 0
50 -1 0
50 -93 0
50 -23 0
50 -74 0
50 -15 0
50 -80 0
50 -41 0
50 -60 0
50 -77 0
50 -95 0
50 -72 0
50 -22 0
50 -65 0
50 -17 0
50 -66 0
50 -84 0
50 -2 0
50 -33 0
50 -40 0
50 -63 0
50 -90 0
50 -21 0
50 -86 0
50 -35 0
50 -5 0
50 -71 0
50 -26 0
50 -6 0
50 -9 0
50 -52 0
50 -54 0
50 -43 0
50 -97 0
50 -76 0
50 -36 0
50 -24 0
50 -42 0
50 -13 0
50 -92 0
50 -88 0
50 -46 0
50 -82 0
50 -38 0
50 -94 0
50 -87 0
50 -61 0
50 -58 0
50 -47 0
50 -73 0
50 -81 0
50 -25 0
50 -32 0
50 -79 0
50 -20 0
50 -56 0
50 -45 0
50 -7 0
50 -27 0
50 -3 0
50 -98 0
50 -10 0
50 -29 0
50 -85 0
50 -37 0
50 -4 0
50 -51 0
50 -19 0
50 -31 0
50 -18 0
50 -59 0
50 -49 0
50 -78 0
50 -55 0
50 -96 0
50 -75 0
50 -68 0
50 -16 0
50 -12 0
50 -48 0
50 -62 0
50 -89 0
50 -64 0
50 -30 0
50 -8 0
50 -99 0
50 -91 0
50 -28 0
50 -39 0
50 -34 0
57 -67 0
70 -14 0
83 -53 0
-57 67 0
-69 44 0
-11 1 0
-93 23 74 0
15 -80 0
41 -60 0
-77 -95 0
-72 22 0
-65 17 0
66 -84 74 0
-2 33 0
-40 44 0
77 -63 0
-90 0
21 -86 0
77 74 95 0
-35 0
5 -71 0
26 0
-6 -74 0
-6 9 0
77 -52 0
-54 44 0
43 -11 1 0
-97 76 0
-36 83 0
24 0
70 14 -42 0
-41 60 74 0
13 0
-92 -14 88 0
46 0
93 -23 0
-92 70 0
77 -82 0
-38 94 0
43 -11 0
-60 -74 0
92 -88 0
46 -87 0
-23 -74 0
83 -61 0
14 -88 0
-58 47 0
14 -42 0
-73 77 0
-81 13 0
-25 32 0
79 -20 0
21 -56 0
21 0
45 -61 0
-7 27 0
27 0
32 -80 0
3 -98 0
77 -10 0
79 -29 0
85 -1 0
43 0
-37 4 0
51 -19 0
-15 -32 80 0
2 -31 0
14 -18 0
-59 77 0
-66 -74 0
85 -49 0
78 -55 0
79 -96 0
-74 -95 0
-66 84 0
75 -68 0
44 0
-16 79 0
12 -48 0
70 -42 0
-77 -74 0
-83 -2 31 0
62 0
32 -89 0
6 -9 74 0
21 -64 0
-94 0
-30 83 0
-8 67 0
8 -67 0
-15 99 0
83 -31 0
91 -28 0
-39 94 0
21 -34 0
-83 -45 61 0
17 0
